33
75
50	3
49	1
48	2
46	1
45	1
44	1
43	2
41	1
38	2
37	2
35	2
33	1
32	1
31	1
30	2
28	1
27	2
26	1
25	1
24	2
22	1
21	4
20	1
19	1
18	1
17	1
16	3
15	1
12	2
11	2
10	1
9	1
8	1
